1061759
0 20 6578
20 6 17005
6 35 11794
35 2 161078
2 13 30026
13 16 42391
16 14 45489
14 15 36816
15 1 57771
1 34 10541
34 17 25923
17 26 12606
26 18 17774
18 39 13572
39 3 28500
3 21 23621
21 23 45980
23 19 65657
19 29 17244
29 36 941
36 25 14546
25 4 32088
4 31 3290
31 11 37145
11 32 3967
32 33 36786
33 24 30137
24 38 4093
38 30 9087
30 12 19069
12 27 6411
27 22 15996
22 37 7449
37 28 745
28 5 37602
5 8 47658
8 7 54349
7 10 17581
10 9 5506
9 0 6947
